p cnf 265 574               
-8 -7 -21 0
21 -23 0
7 8 -22 0
22 -23 0
23 -225 0
-10 -9 -24 0
24 -26 0
9 10 -25 0
25 -26 0
26 -42 0
-12 -11 -27 0
27 -29 0
11 12 -28 0
28 -29 0
29 -42 0
-14 -13 -30 0
30 -32 0
13 14 -31 0
31 -32 0
32 -42 0
-16 -15 -33 0
33 -35 0
15 16 -34 0
34 -35 0
35 -42 0
-18 -17 -36 0
36 -38 0
17 18 -37 0
37 -38 0
38 -42 0
-20 -19 -39 0
39 -41 0
19 20 -40 0
40 -41 0
41 -42 0
42 -225 0
13 65 0
-17 65 0
-13 17 -65 0
14 66 0
-18 66 0
-14 18 -66 0
15 67 0
-19 67 0
-15 19 -67 0
16 68 0
-20 68 0
-16 20 -68 0
-65 -66 -67 -68 69 0
17 70 0
-13 70 0
18 71 0
-14 71 0
19 72 0
-15 72 0
20 73 0
-16 73 0
-70 -71 -72 -73 74 0
-69 -74 75 0
-75 -76 0
9 54 0
-17 54 0
10 55 0
-18 55 0
11 56 0
-19 56 0
12 57 0
-20 57 0
-54 -55 -56 -57 58 0
17 59 0
-9 59 0
18 60 0
-10 60 0
19 61 0
-11 61 0
20 62 0
-12 62 0
-59 -60 -61 -62 63 0
-58 -63 64 0
-64 -76 0
9 43 0
-13 43 0
-9 13 -43 0
10 44 0
-14 44 0
-10 14 -44 0
11 45 0
-15 45 0
-11 15 -45 0
12 46 0
-16 46 0
-12 16 -46 0
-43 -44 -45 -46 47 0
13 48 0
-9 48 0
14 49 0
-10 49 0
15 50 0
-11 50 0
16 51 0
-12 51 0
-48 -49 -50 -51 52 0
-47 -52 53 0
-53 -76 0
76 -225 0
-9 -77 0
10 -77 0
9 -10 77 0
-1 77 -78 0
1 -77 -78 0
77 -77 -78 0
78 -89 0
-11 -79 0
12 -79 0
11 -12 79 0
-2 79 -80 0
2 -79 -80 0
79 -79 -80 0
80 -89 0
-13 -81 0
14 -81 0
13 -14 81 0
-3 81 -82 0
3 -81 -82 0
81 -81 -82 0
82 -89 0
-15 -83 0
16 -83 0
15 -16 83 0
-4 83 -84 0
4 -83 -84 0
83 -83 -84 0
84 -89 0
-17 -85 0
18 -85 0
17 -18 85 0
-5 85 -86 0
5 -85 -86 0
85 -85 -86 0
86 -89 0
-19 -87 0
20 -87 0
19 -20 87 0
-6 87 -88 0
6 -87 -88 0
87 -87 -88 0
88 -89 0
89 -225 0
8 -221 0
-11 -188 0
-9 -188 0
11 9 188 0
188 -190 0
10 -189 0
12 -189 0
-10 -12 189 0
189 -190 0
-188 -189 190 0
-190 197 0
-15 -191 0
-13 -191 0
15 13 191 0
191 -193 0
14 -192 0
16 -192 0
-14 -16 192 0
192 -193 0
-191 -192 193 0
-193 197 0
-19 -194 0
-17 -194 0
19 17 194 0
194 -196 0
18 -195 0
20 -195 0
-18 -20 195 0
195 -196 0
-194 -195 196 0
-196 197 0
190 193 196 -197 0
197 -207 0
2 -199 0
190 -199 0
-2 -190 199 0
-199 205 0
4 -201 0
193 -201 0
-4 -193 201 0
-201 205 0
6 -203 0
196 -203 0
-6 -196 203 0
-203 205 0
199 201 203 -205 0
205 -207 0
-197 -205 207 0
207 208 0
197 -206 0
1 -198 0
190 -198 0
-1 -190 198 0
-198 204 0
3 -200 0
193 -200 0
-3 -193 200 0
-200 204 0
5 -202 0
196 -202 0
-5 -196 202 0
-202 204 0
198 200 202 -204 0
204 -206 0
-197 -204 206 0
206 208 0
-207 -206 -208 0
208 -210 0
-206 209 0
-207 209 0
206 207 -209 0
209 -210 0
-208 -209 210 0
7 -215 0
-204 -211 0
197 -211 0
211 -213 0
-205 -212 0
197 -212 0
212 -213 0
209 213 -214 0
214 -215 0
-210 206 -217 0
210 215 -217 0
206 215 -217 0
217 -221 0
7 -220 0
8 -216 0
214 -216 0
-210 207 -218 0
210 216 -218 0
207 216 -218 0
218 -220 0
221 220 223 0
8 -123 0
-12 -90 0
-10 -90 0
12 10 90 0
90 -92 0
9 -91 0
11 -91 0
-9 -11 91 0
91 -92 0
-90 -91 92 0
-92 99 0
-16 -93 0
-14 -93 0
16 14 93 0
93 -95 0
13 -94 0
15 -94 0
-13 -15 94 0
94 -95 0
-93 -94 95 0
-95 99 0
-20 -96 0
-18 -96 0
20 18 96 0
96 -98 0
17 -97 0
19 -97 0
-17 -19 97 0
97 -98 0
-96 -97 98 0
-98 99 0
92 95 98 -99 0
99 -109 0
2 -101 0
92 -101 0
-2 -92 101 0
-101 107 0
4 -103 0
95 -103 0
-4 -95 103 0
-103 107 0
6 -105 0
98 -105 0
-6 -98 105 0
-105 107 0
101 103 105 -107 0
107 -109 0
-99 -107 109 0
109 110 0
99 -108 0
1 -100 0
92 -100 0
-1 -92 100 0
-100 106 0
3 -102 0
95 -102 0
-3 -95 102 0
-102 106 0
5 -104 0
98 -104 0
-5 -98 104 0
-104 106 0
100 102 104 -106 0
106 -108 0
-99 -106 108 0
108 110 0
-109 -108 -110 0
110 -112 0
-108 111 0
-109 111 0
108 109 -111 0
111 -112 0
-110 -111 112 0
7 -117 0
-106 -113 0
99 -113 0
113 -115 0
-107 -114 0
99 -114 0
114 -115 0
111 115 -116 0
116 -117 0
-112 108 -119 0
112 117 -119 0
108 117 -119 0
119 -123 0
7 -122 0
8 -118 0
116 -118 0
-112 109 -120 0
112 118 -120 0
109 118 -120 0
120 -122 0
123 122 125 0
-11 -126 0
-10 -126 0
11 10 126 0
126 -128 0
9 -127 0
12 -127 0
-9 -12 127 0
127 -128 0
-126 -127 128 0
-128 135 0
-15 -129 0
-14 -129 0
15 14 129 0
129 -131 0
13 -130 0
16 -130 0
-13 -16 130 0
130 -131 0
-129 -130 131 0
-131 135 0
-19 -132 0
-18 -132 0
19 18 132 0
132 -134 0
17 -133 0
20 -133 0
-17 -20 133 0
133 -134 0
-132 -133 134 0
-134 135 0
128 131 134 -135 0
135 -145 0
2 -137 0
128 -137 0
-2 -128 137 0
-137 143 0
4 -139 0
131 -139 0
-4 -131 139 0
-139 143 0
6 -141 0
134 -141 0
-6 -134 141 0
-141 143 0
137 139 141 -143 0
143 -145 0
-135 -143 145 0
145 146 0
135 -144 0
1 -136 0
128 -136 0
-1 -128 136 0
-136 142 0
3 -138 0
131 -138 0
-3 -131 138 0
-138 142 0
5 -140 0
134 -140 0
-5 -134 140 0
-140 142 0
136 138 140 -142 0
142 -144 0
-135 -142 144 0
144 146 0
-145 -144 -146 0
146 -148 0
-144 147 0
-145 147 0
144 145 -147 0
147 -148 0
-146 -147 148 0
7 -153 0
-142 -149 0
135 -149 0
149 -151 0
-143 -150 0
135 -150 0
150 -151 0
147 151 -152 0
152 -153 0
-148 144 -155 0
148 153 -155 0
144 153 -155 0
-12 -157 0
-9 -157 0
12 9 157 0
157 -159 0
10 -158 0
11 -158 0
-10 -11 158 0
158 -159 0
-157 -158 159 0
-159 166 0
-16 -160 0
-13 -160 0
16 13 160 0
160 -162 0
14 -161 0
15 -161 0
-14 -15 161 0
161 -162 0
-160 -161 162 0
-162 166 0
-20 -163 0
-17 -163 0
20 17 163 0
163 -165 0
18 -164 0
19 -164 0
-18 -19 164 0
164 -165 0
-163 -164 165 0
-165 166 0
159 162 165 -166 0
166 -176 0
2 -168 0
159 -168 0
-2 -159 168 0
-168 174 0
4 -170 0
162 -170 0
-4 -162 170 0
-170 174 0
6 -172 0
165 -172 0
-6 -165 172 0
-172 174 0
168 170 172 -174 0
174 -176 0
-166 -174 176 0
176 177 0
166 -175 0
1 -167 0
159 -167 0
-1 -159 167 0
-167 173 0
3 -169 0
162 -169 0
-3 -162 169 0
-169 173 0
5 -171 0
165 -171 0
-5 -165 171 0
-171 173 0
167 169 171 -173 0
173 -175 0
-166 -173 175 0
175 177 0
-176 -175 -177 0
177 -179 0
-175 178 0
-176 178 0
175 176 -178 0
178 -179 0
-177 -178 179 0
8 -185 0
-173 -180 0
166 -180 0
180 -182 0
-174 -181 0
166 -181 0
181 -182 0
178 182 -183 0
183 -185 0
-179 176 -187 0
179 185 -187 0
176 185 -187 0
-223 -125 155 187 -224 0
224 -225 0
-1 3 -226 0
226 -244 0
-1 -3 227 0
1 3 227 0
-3 3 227 0
-2 4 -228 0
-227 228 -229 0
229 -244 0
-2 -4 230 0
2 4 230 0
-4 4 230 0
-227 -230 231 0
-231 43 -232 0
232 -244 0
-9 -13 233 0
9 13 233 0
-13 13 233 0
-231 -233 234 0
-234 44 -235 0
235 -244 0
-10 -14 236 0
10 14 236 0
-14 14 236 0
-234 -236 237 0
-237 45 -238 0
238 -244 0
-11 -15 239 0
11 15 239 0
-15 15 239 0
-237 -239 240 0
-240 46 -241 0
241 -244 0
244 -264 0
-3 5 -245 0
245 -263 0
-3 -5 246 0
3 5 246 0
-5 5 246 0
-4 6 -247 0
-246 247 -248 0
248 -263 0
-4 -6 249 0
4 6 249 0
-6 6 249 0
-246 -249 250 0
-250 65 -251 0
251 -263 0
-13 -17 252 0
13 17 252 0
-17 17 252 0
-250 -252 253 0
-253 66 -254 0
254 -263 0
-14 -18 255 0
14 18 255 0
-18 18 255 0
-253 -255 256 0
-256 67 -257 0
257 -263 0
-15 -19 258 0
15 19 258 0
-19 19 258 0
-256 -258 259 0
-259 68 -260 0
260 -263 0
263 -264 0
225 0
264 0
